
Gurobi 7.5.2 (linux64) logging started Sat Jun 23 16:25:59 2018

Changed value of parameter LogFile to result/ilp/simNo_4-n_100-m_40-s_4-minVAF_0.05-cov_2000-k_2-fn_0.25-fp_0.0001-na_0.15.ILP.gurobiSolverLog
   Prev: gurobi.log  Default: 
Changed value of parameter TimeLimit to 86400.0
   Prev: 1e+100  Min: 0.0  Max: 1e+100  Default: 1e+100
Optimize a model with 1265601 rows, 330440 columns and 3489120 nonzeros
Variable types: 0 continuous, 330440 integer (330440 binary)
Coefficient statistics:
  Matrix range     [3e-03, 3e+00]
  Objective range  [9e-01, 3e+01]
  Bounds range     [1e+00, 1e+00]
  RHS range        [3e-01, 2e+00]
Found heuristic solution: objective -15716.08594
Presolve removed 335936 rows and 215165 columns (presolve time = 6s) ...
Presolve removed 336406 rows and 215165 columns (presolve time = 10s) ...
Presolve removed 336406 rows and 215165 columns (presolve time = 15s) ...
Presolve removed 336406 rows and 215165 columns (presolve time = 20s) ...
Presolve removed 336406 rows and 215165 columns (presolve time = 26s) ...
Presolve removed 336406 rows and 215165 columns (presolve time = 30s) ...
Presolve removed 336406 rows and 215165 columns (presolve time = 35s) ...
Presolve removed 336406 rows and 215165 columns (presolve time = 51s) ...
Presolve removed 336406 rows and 215165 columns
Presolve time: 54.98s
Presolved: 929195 rows, 115275 columns, 2578008 nonzeros
Variable types: 0 continuous, 115275 integer (115275 binary)
Presolve removed 0 rows and 0 columns (presolve time = 6s) ...
Presolved: 115275 rows, 1044470 columns, 2693283 nonzeros

Presolve removed 115275 rows and 1044470 columns

Root simplex log...

Iteration    Objective       Primal Inf.    Dual Inf.      Time
       0    5.0691348e+01   0.000000e+00   1.021000e+05     71s
   17006   -1.9192554e+02   0.000000e+00   3.260207e+05     75s
   30116   -2.1789095e+02   0.000000e+00   1.748235e+05     80s
   42086   -2.3758917e+02   0.000000e+00   2.780341e+05     85s
   50636   -2.5289436e+02   0.000000e+00   2.649416e+05     90s
   60326   -2.6559603e+02   0.000000e+00   3.853275e+05     95s
   71156   -2.8174720e+02   0.000000e+00   1.596809e+06    100s
   81416   -2.9615148e+02   0.000000e+00   4.928480e+05    105s
   90593   -3.0800466e+02   0.000000e+00   0.000000e+00    110s
   90593   -3.0800466e+02   0.000000e+00   0.000000e+00    113s

Root relaxation: objective -3.080047e+02, 90593 iterations, 52.82 seconds
Total elapsed time = 115.30s
Total elapsed time = 183.07s
Total elapsed time = 216.11s
Total elapsed time = 254.34s

    Nodes    |    Current Node    |     Objective Bounds      |     Work
 Expl Unexpl |  Obj  Depth IntInf | Incumbent    BestBd   Gap | It/Node Time

     0     0 -308.00466    0 2555 -15716.086 -308.00466  98.0%     -  262s
H    0     0                    -364.9008022 -308.00466  15.6%     -  342s
     0     0 -310.44196    0 2623 -364.90080 -310.44196  14.9%     -  384s
     0     0 -310.44196    0 2626 -364.90080 -310.44196  14.9%     -  785s
     0     0 -313.31522    0 2571 -364.90080 -313.31522  14.1%     -  848s
     0     0 -313.31522    0 2568 -364.90080 -313.31522  14.1%     -  896s
     0     0 -315.29775    0 2619 -364.90080 -315.29775  13.6%     -  932s
     0     0 -315.47534    0 2619 -364.90080 -315.47534  13.5%     - 1214s
     0     0 -315.47534    0 2619 -364.90080 -315.47534  13.5%     - 1226s
     0     0 -316.43048    0 2581 -364.90080 -316.43048  13.3%     - 1273s
     0     0 -316.53860    0 2576 -364.90080 -316.53860  13.3%     - 1319s
     0     0 -316.55549    0 2583 -364.90080 -316.55549  13.2%     - 1330s
     0     0 -316.55549    0 2586 -364.90080 -316.55549  13.2%     - 1339s
     0     0 -317.68949    0 2645 -364.90080 -317.68949  12.9%     - 1390s
     0     0 -317.78702    0 2650 -364.90080 -317.78702  12.9%     - 1635s
     0     0 -317.78871    0 2655 -364.90080 -317.78871  12.9%     - 1642s
     0     0 -317.78871    0 2656 -364.90080 -317.78871  12.9%     - 1649s
     0     0 -319.13626    0 2655 -364.90080 -319.13626  12.5%     - 1691s
     0     0 -319.23915    0 2658 -364.90080 -319.23915  12.5%     - 2069s
     0     0 -319.23915    0 2659 -364.90080 -319.23915  12.5%     - 2078s
     0     0 -321.29081    0 2651 -364.90080 -321.29081  12.0%     - 2165s
     0     0 -321.36390    0 2662 -364.90080 -321.36390  11.9%     - 2506s
     0     0 -321.36610    0 2667 -364.90080 -321.36610  11.9%     - 2521s
     0     0 -321.40785    0 2657 -364.90080 -321.40785  11.9%     - 2542s
     0     0 -321.40785    0 2658 -364.90080 -321.40785  11.9%     - 2552s
     0     0 -322.15837    0 2647 -364.90080 -322.15837  11.7%     - 2593s
     0     0 -322.19698    0 2654 -364.90080 -322.19698  11.7%     - 2911s
     0     0 -322.20174    0 2640 -364.90080 -322.20174  11.7%     - 2925s
     0     0 -322.26413    0 2659 -364.90080 -322.26413  11.7%     - 2936s
     0     0 -322.26413    0 2663 -364.90080 -322.26413  11.7%     - 2948s
     0     0 -323.51840    0 2653 -364.90080 -323.51840  11.3%     - 3017s
     0     0 -323.92488    0 1330 -364.90080 -323.92488  11.2%     - 3470s
     0     0 -323.97549    0 1344 -364.90080 -323.97549  11.2%     - 3481s
     0     0 -324.02918    0 2667 -364.90080 -324.02918  11.2%     - 3497s
     0     0 -324.02918    0 2672 -364.90080 -324.02918  11.2%     - 3508s
     0     0 -324.96754    0 2643 -364.90080 -324.96754  10.9%     - 3561s
     0     0 -324.96992    0 2647 -364.90080 -324.96992  10.9%     - 3932s
     0     0 -325.25031    0 2640 -364.90080 -325.25031  10.9%     - 3945s
     0     0 -325.25322    0 2641 -364.90080 -325.25322  10.9%     - 3958s
     0     0 -325.25322    0 2642 -364.90080 -325.25322  10.9%     - 3971s
     0     0 -325.81655    0 1316 -364.90080 -325.81655  10.7%     - 4012s
     0     0 -325.88120    0 2663 -364.90080 -325.88120  10.7%     - 4056s
     0     0 -325.98815    0 2667 -364.90080 -325.98815  10.7%     - 4070s
     0     0 -325.98815    0 2670 -364.90080 -325.98815  10.7%     - 4081s
     0     0 -326.62887    0 2648 -364.90080 -326.62887  10.5%     - 4124s
     0     0 -326.70123    0 2648 -364.90080 -326.70123  10.5%     - 4440s
     0     0 -326.71832    0 2650 -364.90080 -326.71832  10.5%     - 4452s
     0     0 -326.74109    0 2662 -364.90080 -326.74109  10.5%     - 4463s
     0     0 -326.74123    0 2664 -364.90080 -326.74123  10.5%     - 4472s
     0     0 -327.69686    0 1259 -364.90080 -327.69686  10.2%     - 4514s
     0     0 -327.70993    0 1266 -364.90080 -327.70993  10.2%     - 4553s
     0     0 -327.72249    0 1279 -364.90080 -327.72249  10.2%     - 4569s
     0     0 -327.72377    0 1275 -364.90080 -327.72377  10.2%     - 4580s
     0     0 -328.25433    0 2600 -364.90080 -328.25433  10.0%     - 4606s
     0     0 -328.47853    0 2559 -364.90080 -328.47853  10.0%     - 5070s
     0     0 -328.58340    0 2563 -364.90080 -328.58340  10.0%     - 5085s
     0     0 -328.64487    0 2560 -364.90080 -328.64487  9.94%     - 5097s
     0     0 -328.66843    0 2566 -364.90080 -328.66843  9.93%     - 5106s
     0     0 -328.66858    0 2568 -364.90080 -328.66858  9.93%     - 5115s
     0     0 -329.62568    0 1052 -364.90080 -329.62568  9.67%     - 5160s
     0     0 -329.82073    0 1055 -364.90080 -329.82073  9.61%     - 5190s
     0     0 -329.90443    0 2550 -364.90080 -329.90443  9.59%     - 5216s
     0     0 -329.92670    0 2551 -364.90080 -329.92670  9.58%     - 5233s
     0     0 -329.99459    0 2568 -364.90080 -329.99459  9.57%     - 5247s
     0     0 -330.01610    0 2560 -364.90080 -330.01610  9.56%     - 5258s
     0     0 -330.02025    0 2568 -364.90080 -330.02025  9.56%     - 5271s
     0     0 -330.02025    0 2568 -364.90080 -330.02025  9.56%     - 5281s
     0     0 -330.97186    0 2573 -364.90080 -330.97186  9.30%     - 5324s
     0     0 -331.18484    0 2573 -364.90080 -331.18484  9.24%     - 5625s
     0     0 -331.27117    0 2578 -364.90080 -331.27117  9.22%     - 5638s
     0     0 -331.29221    0 2583 -364.90080 -331.29221  9.21%     - 5650s
     0     0 -331.29730    0 2587 -364.90080 -331.29730  9.21%     - 5661s
     0     0 -331.30894    0 2583 -364.90080 -331.30894  9.21%     - 5672s
     0     0 -331.30909    0 2587 -364.90080 -331.30909  9.21%     - 5683s
     0     0 -332.05543    0 2586 -364.90080 -332.05543  9.00%     - 5760s
     0     0 -332.13781    0 2573 -364.90080 -332.13781  8.98%     - 6049s
     0     0 -332.15834    0 2574 -364.90080 -332.15834  8.97%     - 6060s
     0     0 -332.17893    0 2588 -364.90080 -332.17893  8.97%     - 6072s
     0     0 -332.17942    0 2598 -364.90080 -332.17942  8.97%     - 6081s
     0     0 -332.87845    0 2636 -364.90080 -332.87845  8.78%     - 6118s
     0     0 -333.04996    0 2587 -364.90080 -333.04996  8.73%     - 6541s
     0     0 -333.11168    0 2583 -364.90080 -333.11168  8.71%     - 6555s
     0     0 -333.13953    0 2590 -364.90080 -333.13953  8.70%     - 6567s
     0     0 -333.14340    0 2590 -364.90080 -333.14340  8.70%     - 6577s
     0     0 -333.14742    0 2598 -364.90080 -333.14742  8.70%     - 6586s
     0     0 -333.14945    0 2594 -364.90080 -333.14945  8.70%     - 6594s
     0     0 -333.53978    0 2578 -364.90080 -333.53978  8.59%     - 6646s
     0     0 -333.74173    0 2555 -364.90080 -333.74173  8.54%     - 6951s
     0     0 -333.78894    0 2606 -364.90080 -333.78894  8.53%     - 6969s
     0     0 -333.79201    0 2524 -364.90080 -333.79201  8.53%     - 6982s
     0     0 -333.79359    0 2588 -364.90080 -333.79359  8.52%     - 6991s
     0     0 -333.96007    0 2602 -364.90080 -333.96007  8.48%     - 7022s
     0     0 -334.09822    0 2586 -364.90080 -334.09822  8.44%     - 7292s
     0     0 -334.14554    0 2587 -364.90080 -334.14554  8.43%     - 7304s
     0     0 -334.15770    0 2602 -364.90080 -334.15770  8.43%     - 7314s
     0     0 -334.16492    0 2618 -364.90080 -334.16492  8.42%     - 7323s
     0     0 -334.16725    0 2621 -364.90080 -334.16725  8.42%     - 7332s
     0     0 -334.27580    0 2602 -364.90080 -334.27580  8.39%     - 7362s
     0     0 -334.34438    0 2611 -364.90080 -334.34438  8.37%     - 7746s
     0     0 -334.39224    0 2612 -364.90080 -334.39224  8.36%     - 7758s
     0     0 -334.40000    0 2623 -364.90080 -334.40000  8.36%     - 7769s
     0     0 -334.40650    0 2626 -364.90080 -334.40650  8.36%     - 7777s
     0     0 -334.40856    0 2625 -364.90080 -334.40856  8.36%     - 7787s
     0     0 -335.09281    0 2571 -364.90080 -335.09281  8.17%     - 7877s
     0     0 -335.12676    0 2579 -364.90080 -335.12676  8.16%     - 8137s
     0     0 -335.14482    0 2585 -364.90080 -335.14482  8.15%     - 8151s
     0     0 -335.14571    0 2585 -364.90080 -335.14571  8.15%     - 8163s
     0     0 -335.49216    0 1266 -364.90080 -335.49216  8.06%     - 8215s
     0     0 -335.58391    0 2593 -364.90080 -335.58391  8.03%     - 8287s
     0     0 -335.61177    0 2596 -364.90080 -335.61177  8.03%     - 8302s
     0     0 -335.64198    0 2595 -364.90080 -335.64198  8.02%     - 8329s
     0     0 -335.65717    0 1279 -364.90080 -335.65717  8.01%     - 8345s
     0     0 -335.66664    0 1288 -364.90080 -335.66664  8.01%     - 8359s
     0     0 -335.67266    0 1292 -364.90080 -335.67266  8.01%     - 8372s
     0     0 -335.67442    0 2614 -364.90080 -335.67442  8.01%     - 8388s
     0     0 -336.35223    0 2593 -364.90080 -336.35223  7.82%     - 8468s
     0     0 -336.57996    0 2599 -364.90080 -336.57996  7.76%     - 8811s
     0     0 -336.60862    0 2604 -364.90080 -336.60862  7.75%     - 8823s
     0     0 -336.61332    0 2608 -364.90080 -336.61332  7.75%     - 8833s
     0     0 -336.61394    0 2609 -364.90080 -336.61394  7.75%     - 8841s
     0     0 -336.98814    0 2593 -364.90080 -336.98814  7.65%     - 8888s
     0     0 -337.09437    0 2599 -364.90080 -337.09437  7.62%     - 9108s
     0     0 -337.17158    0 2612 -364.90080 -337.17158  7.60%     - 9121s
     0     0 -337.19176    0 2615 -364.90080 -337.19176  7.59%     - 9131s
     0     0 -337.19822    0 2615 -364.90080 -337.19822  7.59%     - 9140s
     0     0 -337.19947    0 2620 -364.90080 -337.19947  7.59%     - 9148s
     0     0 -337.81707    0 2589 -364.90080 -337.81707  7.42%     - 9187s
     0     0 -337.96623    0 2597 -364.90080 -337.96623  7.38%     - 9385s
     0     0 -337.99529    0 2599 -364.90080 -337.99529  7.37%     - 9400s
     0     0 -338.02037    0 2603 -364.90080 -338.02037  7.37%     - 9411s
     0     0 -338.03099    0 2595 -364.90080 -338.03099  7.36%     - 9421s
     0     0 -338.03575    0 2603 -364.90080 -338.03575  7.36%     - 9434s
     0     0 -338.03608    0 2599 -364.90080 -338.03608  7.36%     - 9442s
     0     0 -338.25812    0 2656 -364.90080 -338.25812  7.30%     - 9471s
     0     0 -338.26089    0 2656 -364.90080 -338.26089  7.30%     - 9676s
     0     0 -338.30322    0 2685 -364.90080 -338.30322  7.29%     - 9704s
     0     0 -338.41020    0 2683 -364.90080 -338.41020  7.26%     - 9935s
     0     0 -338.43442    0 2689 -364.90080 -338.43442  7.25%     - 9944s
     0     0 -338.43450    0 2697 -364.90080 -338.43450  7.25%     - 9952s
     0     0 -338.81241    0 2684 -364.90080 -338.81241  7.15%     - 9986s
     0     0 -338.83568    0 2688 -364.90080 -338.83568  7.14%     - 10312s
     0     0 -338.83581    0 2700 -364.90080 -338.83581  7.14%     - 10320s
     0     0 -339.22925    0 2691 -364.90080 -339.22925  7.04%     - 10348s
     0     0 -339.23662    0 2704 -364.90080 -339.23662  7.03%     - 10565s
     0     0 -339.24114    0 2701 -364.90080 -339.24114  7.03%     - 10576s
     0     0 -339.24200    0 2700 -364.90080 -339.24200  7.03%     - 10583s
     0     0 -339.26661    0 2698 -364.90080 -339.26661  7.02%     - 10609s
     0     0 -339.42257    0 2641 -364.90080 -339.42257  6.98%     - 10620s
     0     0 -339.45555    0 2627 -364.90080 -339.45555  6.97%     - 10630s
     0     0 -339.45856    0 2660 -364.90080 -339.45856  6.97%     - 10639s
     0     0 -339.66370    0 2691 -364.90080 -339.66370  6.92%     - 10669s
     0     0 -339.82303    0 2700 -364.90080 -339.82303  6.87%     - 10826s
     0     0 -339.83500    0 2701 -364.90080 -339.83500  6.87%     - 10835s
     0     0 -339.83684    0 2704 -364.90080 -339.83684  6.87%     - 10844s
     0     0 -340.04162    0 2696 -364.90080 -340.04162  6.81%     - 10871s
     0     0 -340.13435    0 2697 -364.90080 -340.13435  6.79%     - 10882s
     0     0 -340.14388    0 2704 -364.90080 -340.14388  6.78%     - 10890s
     0     0 -340.14900    0 2707 -364.90080 -340.14900  6.78%     - 10898s
     0     0 -340.15456    0 2709 -364.90080 -340.15456  6.78%     - 10905s
     0     0 -340.15524    0 2708 -364.90080 -340.15524  6.78%     - 10912s
     0     0 -340.76910    0 2691 -364.90080 -340.76910  6.61%     - 10941s
     0     0 -340.92033    0 2699 -364.90080 -340.92033  6.57%     - 11163s
     0     0 -340.92878    0 2701 -364.90080 -340.92878  6.57%     - 11174s
     0     0 -340.92943    0 2700 -364.90080 -340.92943  6.57%     - 11182s
     0     0 -341.35782    0 2605 -364.90080 -341.35782  6.45%     - 11212s
     0     0 -341.39209    0 2608 -364.90080 -341.39209  6.44%     - 11464s
     0     0 -341.40783    0 2610 -364.90080 -341.40783  6.44%     - 11472s
     0     0 -341.40936    0 2604 -364.90080 -341.40936  6.44%     - 11477s
     0     0 -341.60769    0 2591 -364.90080 -341.60769  6.38%     - 11501s
     0     0 -341.84450    0 2595 -364.90080 -341.84450  6.32%     - 11738s
     0     0 -341.91655    0 2597 -364.90080 -341.91655  6.30%     - 11747s
     0     0 -341.95330    0 2605 -364.90080 -341.95330  6.29%     - 11754s
     0     0 -341.96144    0 2603 -364.90080 -341.96144  6.29%     - 11761s
     0     0 -341.96249    0 2610 -364.90080 -341.96249  6.29%     - 11768s
     0     0 -342.28828    0 2595 -364.90080 -342.28828  6.20%     - 11791s
     0     0 -342.35132    0 2565 -364.90080 -342.35132  6.18%     - 11819s
     0     0 -342.40386    0 2597 -364.90080 -342.40386  6.17%     - 11831s
     0     0 -342.42594    0 2605 -364.90080 -342.42594  6.16%     - 11841s
     0     0 -342.43569    0 2606 -364.90080 -342.43569  6.16%     - 11851s
     0     0 -342.44497    0 2601 -364.90080 -342.44497  6.15%     - 11863s
     0     0 -342.45017    0 2609 -364.90080 -342.45017  6.15%     - 11873s
     0     0 -342.45073    0 2614 -364.90080 -342.45073  6.15%     - 11882s
     0     0 -342.60150    0 2601 -364.90080 -342.60150  6.11%     - 11910s
     0     0 -342.62961    0 2608 -364.90080 -342.62961  6.10%     - 11923s
     0     0 -342.64488    0 2600 -364.90080 -342.64488  6.10%     - 11934s
     0     0 -342.67210    0 2606 -364.90080 -342.67210  6.09%     - 11946s
     0     0 -342.69382    0 2610 -364.90080 -342.69382  6.09%     - 11955s
     0     0 -342.69914    0 2614 -364.90080 -342.69914  6.08%     - 11965s
     0     0 -342.69994    0 2615 -364.90080 -342.69994  6.08%     - 11972s
     0     0 -343.03732    0 2573 -364.90080 -343.03732  5.99%     - 12007s
     0     0 -343.23473    0 2606 -364.90080 -343.23473  5.94%     - 12024s
     0     0 -343.27815    0 2611 -364.90080 -343.27815  5.93%     - 12036s
     0     0 -343.28683    0 2611 -364.90080 -343.28683  5.92%     - 12047s
     0     0 -343.29532    0 2610 -364.90080 -343.29532  5.92%     - 12056s
     0     0 -343.30075    0 2607 -364.90080 -343.30075  5.92%     - 12065s
     0     0 -343.30343    0 2613 -364.90080 -343.30343  5.92%     - 12073s
     0     0 -343.47888    0 2598 -364.90080 -343.47888  5.87%     - 12101s
     0     0 -343.54221    0 2606 -364.90080 -343.54221  5.85%     - 12134s
     0     0 -343.57389    0 2613 -364.90080 -343.57389  5.84%     - 12144s
     0     0 -343.58029    0 2615 -364.90080 -343.58029  5.84%     - 12150s
     0     0 -343.58383    0 2616 -364.90080 -343.58383  5.84%     - 12159s
     0     0 -343.70358    0 2598 -364.90080 -343.70358  5.81%     - 12186s
     0     0 -343.88360    0 2606 -364.90080 -343.88360  5.76%     - 12198s
     0     0 -343.91249    0 2608 -364.90080 -343.91249  5.75%     - 12210s
     0     0 -343.93890    0 2610 -364.90080 -343.93890  5.74%     - 12220s
     0     0 -343.94229    0 2612 -364.90080 -343.94229  5.74%     - 12230s
     0     0 -344.19181    0 2593 -364.90080 -344.19181  5.68%     - 12256s
     0     0 -344.25549    0 2595 -364.90080 -344.25549  5.66%     - 12441s
     0     0 -344.28491    0 2563 -364.90080 -344.28491  5.65%     - 12449s
     0     0 -344.28491    0 2568 -364.90080 -344.28491  5.65%     - 12455s
     0     0 -344.31630    0 2586 -364.90080 -344.31630  5.64%     - 12482s
     0     0 -344.43868    0 2586 -364.90080 -344.43868  5.61%     - 12493s
     0     0 -344.52362    0 2597 -364.90080 -344.52362  5.58%     - 12503s
     0     0 -344.55717    0 2593 -364.90080 -344.55717  5.58%     - 12514s
     0     0 -344.56815    0 2606 -364.90080 -344.56815  5.57%     - 12524s
     0     0 -344.57435    0 2609 -364.90080 -344.57435  5.57%     - 12530s
     0     0 -344.57574    0 2613 -364.90080 -344.57574  5.57%     - 12537s
     0     0 -344.65074    0 2588 -364.90080 -344.65074  5.55%     - 12565s
     0     0 -344.79701    0 2580 -364.90080 -344.79701  5.51%     - 12599s
     0     0 -344.81051    0 2608 -364.90080 -344.81051  5.51%     - 12608s
     0     0 -344.84790    0 2589 -364.90080 -344.84790  5.50%     - 12618s
     0     0 -344.85296    0 2605 -364.90080 -344.85296  5.49%     - 12626s
     0     0 -344.85690    0 2604 -364.90080 -344.85690  5.49%     - 12634s
     0     0 -344.85801    0 1301 -364.90080 -344.85801  5.49%     - 12644s
     0     0 -344.86121    0 2600 -364.90080 -344.86121  5.49%     - 12666s
     0     0 -344.90887    0 2600 -364.90080 -344.90887  5.48%     - 12678s
     0     0 -344.91454    0 2592 -364.90080 -344.91454  5.48%     - 12686s
     0     0 -344.91710    0 2600 -364.90080 -344.91710  5.48%     - 12695s
     0     0 -344.94723    0 2598 -364.90080 -344.94723  5.47%     - 12720s
     0     0 -344.96081    0 2595 -364.90080 -344.96081  5.46%     - 12729s
     0     0 -344.98098    0 2597 -364.90080 -344.98098  5.46%     - 12740s
     0     0 -344.99112    0 2597 -364.90080 -344.99112  5.46%     - 12748s
     0     0 -344.99739    0 2592 -364.90080 -344.99739  5.45%     - 12756s
     0     0 -344.99877    0 2591 -364.90080 -344.99877  5.45%     - 12763s
     0     0 -345.04480    0 2603 -364.90080 -345.04480  5.44%     - 12789s
     0     0 -345.08014    0 2599 -364.90080 -345.08014  5.43%     - 12802s
     0     0 -345.12493    0 2595 -364.90080 -345.12493  5.42%     - 12812s
     0     0 -345.13271    0 2600 -364.90080 -345.13271  5.42%     - 12820s
     0     0 -345.14225    0 2601 -364.90080 -345.14225  5.41%     - 12828s
     0     0 -345.14822    0 2607 -364.90080 -345.14822  5.41%     - 12836s
     0     0 -345.15391    0 2604 -364.90080 -345.15391  5.41%     - 12843s
     0     0 -345.15634    0 2613 -364.90080 -345.15634  5.41%     - 12850s
     0     0 -345.20955    0 2589 -364.90080 -345.20955  5.40%     - 12875s
     0     0 -345.24407    0 2594 -364.90080 -345.24407  5.39%     - 12886s
     0     0 -345.27400    0 2580 -364.90080 -345.27400  5.38%     - 12897s
     0     0 -345.28201    0 2581 -364.90080 -345.28201  5.38%     - 12907s
     0     0 -345.28434    0 2584 -364.90080 -345.28434  5.38%     - 12915s
     0     0 -345.28452    0 2596 -364.90080 -345.28452  5.38%     - 12938s
     0     0 -345.30585    0 2578 -364.90080 -345.30585  5.37%     - 13165s
     0     0 -345.32085    0 2597 -364.90080 -345.32085  5.37%     - 13176s
     0     0 -345.32515    0 2595 -364.90080 -345.32515  5.36%     - 13185s
     0     0 -345.32875    0 2592 -364.90080 -345.32875  5.36%     - 13192s
     0     0 -345.32961    0 2597 -364.90080 -345.32961  5.36%     - 13214s
     0     0 -345.32980    0 2596 -364.90080 -345.32980  5.36%     - 13392s
     0     0 -345.41893    0 2587 -364.90080 -345.41893  5.34%     - 13419s
     0     0 -345.56469    0 2570 -364.90080 -345.56469  5.30%     - 13630s
     0     0 -345.58348    0 2585 -364.90080 -345.58348  5.29%     - 13641s
     0     0 -345.58795    0 2588 -364.90080 -345.58795  5.29%     - 13650s
     0     0 -345.59519    0 2586 -364.90080 -345.59519  5.29%     - 13660s
     0     0 -345.60235    0 2587 -364.90080 -345.60235  5.29%     - 13668s
     0     0 -345.60853    0 2591 -364.90080 -345.60853  5.29%     - 13676s
     0     0 -345.61179    0 2594 -364.90080 -345.61179  5.29%     - 13683s
     0     0 -345.62255    0 2586 -364.90080 -345.62255  5.28%     - 13705s
     0     0 -345.64523    0 1240 -364.90080 -345.64523  5.28%     - 13951s
     0     0 -345.64523    0 1239 -364.90080 -345.64523  5.28%     - 13958s
     0     0 -345.64523    0 1223 -364.90080 -345.64523  5.28%     - 14136s
     0     2 -345.65191    0 1223 -364.90080 -345.65191  5.28%     - 14245s
     1     3 -345.86537    1 1204 -364.90080 -345.70260  5.26%  4455 14256s
     2     4 -346.24293    2 1039 -364.90080 -345.70260  5.26%  3192 14267s
     3     5 -346.36592    3 1039 -364.90080 -345.70260  5.26%  2298 14271s
     4     6 -357.27965    3  842 -364.90080 -345.70260  5.26%  3419 14307s
     5     7 -357.87657    4  839 -364.90080 -345.70260  5.26%  2756 14310s
     6     8 -362.80277    4  776 -364.90080 -345.70260  5.26%  2397 14315s
     7     9 -359.97057    5  699 -364.90080 -345.70260  5.26%  2180 14320s
    10    12 -360.71595    8  368 -364.90080 -345.70260  5.26%  1570 14326s
    11    13 -362.66234    8  277 -364.90080 -345.70260  5.26%  1503 14331s
    12    14 -361.04610    9  365 -364.90080 -345.70260  5.26%  1445 14335s
    15    13     cutoff   11      -364.90080 -345.70260  5.26%  1179 14340s
    17    15 -364.36357   11  238 -364.90080 -345.70260  5.26%  1084 14346s
    18    16 -361.39601   11  367 -364.90080 -345.70260  5.26%  1054 14350s
    20    18 -361.76696   12  328 -364.90080 -345.70260  5.26%   967 14355s
    23    19 -361.91619   14  325 -364.90080 -345.70260  5.26%   860 14360s
    27    19 -362.34256   16  322 -364.90080 -345.70260  5.26%   754 14365s
    29    21 -362.66234   18  299 -364.90080 -345.70260  5.26%   710 14371s
    33    21 -363.33388   20  278 -364.90080 -345.70260  5.26%   643 14376s
    35    23 -364.00542   22  254 -364.90080 -345.70260  5.26%   607 14380s
    39    25 -364.45311   25  203 -364.90080 -345.70260  5.26%   552 14385s
    43    23 -349.45553    1 2557 -364.90080 -345.86686  5.22%   787 14509s
    44    24 -353.39226    2 2476 -364.90080 -345.86686  5.22%   899 14543s
    45    25 -353.80960    3 1020 -364.90080 -345.86686  5.22%   883 14546s
    46    26 -356.19861    4  964 -364.90080 -345.86686  5.22%   877 14551s
    47    27 -357.90781    4 1007 -364.90080 -345.86686  5.22%   877 14560s
    49    27     cutoff    5      -364.90080 -345.86686  5.22%   856 14568s
    50    28 -358.80319    6  995 -364.90080 -345.86686  5.22%   843 14571s
    51    27     cutoff    6      -364.90080 -345.86686  5.22%   839 14576s
    54    30 -359.25088    9  994 -364.90080 -345.86686  5.22%   793 14585s
    60    34 -359.55034   14  984 -364.90080 -345.86686  5.22%   718 14590s
    65    35 -360.74498   17  965 -364.90080 -345.86686  5.22%   671 14596s
    69    37     cutoff   20      -364.90080 -345.86686  5.22%   636 14600s
    75    41 -362.30237   25  955 -364.90080 -345.86686  5.22%   586 14606s
    79    43 -363.19775   28  950 -364.90080 -345.86686  5.22%   559 14610s
    81    45 -363.64309   30  961 -364.90080 -345.86686  5.22%   546 14616s
    84    46 -364.09313   32  945 -364.90080 -345.86686  5.22%   528 14623s
    87    43     cutoff   33      -364.90080 -345.86686  5.22%   511 14625s
    89    43 -347.06943    2 2428 -364.90080 -346.36592  5.08%   544 14646s
    90    44 -349.41122    3 1017 -364.90080 -346.36592  5.08%   579 14670s
    91    45 -350.64304    4  995 -364.90080 -346.36592  5.08%   593 14685s
    92    46 -351.34768    4 1006 -364.90080 -346.36592  5.08%   630 14722s
    93    47 -352.47133    5  985 -364.90080 -346.36592  5.08%   720 14817s
    94    48 -352.87895    5  994 -364.90080 -346.36592  5.08%   738 14838s
    96    50 -353.32664    7  994 -364.90080 -346.36592  5.08%   727 14845s
    97    49     cutoff    7      -364.90080 -346.36592  5.08%  1263 16034s
    98    50 -354.21955    8 1010 -364.90080 -346.36592  5.08%  1291 16082s
   100    52 -354.21955   10 1000 -364.90080 -346.36592  5.08%  1267 16085s
   101    51     cutoff   10      -364.90080 -346.36592  5.08%  3326 23568s
   102    52 -354.66724   11  995 -364.90080 -346.36592  5.08%  3304 23578s
   103    51     cutoff   11      -364.90080 -346.36592  5.08%  4476 27285s
   104    52 -354.92572   12  997 -364.90080 -346.36592  5.08%  4441 27292s
   105    51     cutoff   12      -364.90080 -346.36592  5.08%  4978 28818s
   106    52 -355.60014   13 1007 -364.90080 -346.36592  5.08%  4938 28824s
   107    53 -355.97239   14 1006 -364.90080 -346.36592  5.08%  4898 28831s
   108    54 -357.79444   15  960 -364.90080 -346.36592  5.08%  4863 28844s
   109    55 -357.68251   15  968 -364.90080 -346.36592  5.08%  4835 28856s
   110    56 -358.57790   16  968 -364.90080 -346.36592  5.08%  4798 28864s
   111    55     cutoff   16      -364.90080 -346.36592  5.08%  4807 28920s
   113    57 -359.02559   18  968 -364.90080 -346.36592  5.08%  4726 28928s
   114    56     cutoff   18      -364.90080 -346.36592  5.08%  4774 29012s
   117    59 -359.47328   21  968 -364.90080 -346.36592  5.08%  4653 29017s
   118    58     cutoff   21      -364.90080 -346.36592  5.08%  4625 29028s
   119    59 -359.92097   22  968 -364.90080 -346.36592  5.08%  4593 29035s
   124    64 -360.36867   27  968 -364.90080 -346.36592  5.08%  4409 29040s
   127    65 -360.81874   29  968 -364.90080 -346.36592  5.08%  4309 29045s
   129    65     cutoff   30      -364.90080 -346.36592  5.08%  4252 29053s
   130    66 -361.71174   31  963 -364.90080 -346.36592  5.08%  4223 29057s
   131    65     cutoff   31      -364.90080 -346.36592  5.08%  4199 29064s
   132    66 -363.50013   32  901 -364.90080 -346.36592  5.08%  4179 29077s
   133    67 -364.39789   32  932 -364.90080 -346.36592  5.08%  4164 29088s
   135    65     cutoff   33      -364.90080 -346.36592  5.08%  4103 29090s
   136    66 -363.50251   33  956 -364.90080 -346.36592  5.08%  4074 29095s
   138    68 -364.39551   35  895 -364.90080 -346.36592  5.08%  4021 29102s
   141    65     cutoff   36      -364.90080 -346.36592  5.08%  3940 29105s
   143    65 -346.36597    4 1050 -364.90080 -346.36592  5.08%  3888 29110s
   144    66 -347.33733    5 1086 -364.90080 -346.36592  5.08%  3906 29164s
   145    67 -355.08741    6  962 -364.90080 -346.36592  5.08%  4107 29726s
   146    68 -347.73390    6 1056 -364.90080 -346.36592  5.08%  4117 29780s
   147    69 -347.83254    7 1045 -364.90080 -346.36592  5.08%  4097 29789s
   148    70 -350.05235    7  921 -364.90080 -346.36592  5.08%  4284 30493s
   149    71 -350.50004    8  925 -364.90080 -346.36592  5.08%  4395 30985s
   150    72 -353.55927    8  746 -364.90080 -346.36592  5.08%  4791 32773s
   151    73 -353.75349    9  785 -364.90080 -346.36592  5.08%  4919 33292s
   152    72     cutoff    9      -364.90080 -346.36592  5.08%  6358 40886s
   153    73 -354.07931   10  790 -364.90080 -346.36592  5.08%  6466 41356s
   154    74 -354.21046   11  783 -364.90080 -346.36592  5.08%  6443 41393s
   155    75 -361.02080   11  498 -364.90080 -346.36592  5.08%  7373 45918s
   156    76 -361.46850   12  493 -364.90080 -346.36592  5.08%  7366 46033s
   157    77 -361.46850   13  502 -364.90080 -346.36592  5.08%  7322 46045s
   158    78 -361.91619   14  459 -364.90080 -346.36592  5.08%  7325 46193s
   159    77     cutoff   14      -364.90080 -346.36592  5.08%  7806 48466s
   160    76     cutoff   13      -364.90080 -346.36592  5.08%  7763 48480s
   161    75     cutoff   12      -364.90080 -346.36592  5.08%  8391 51671s
   163    77 -362.36388   16  458 -364.90080 -346.36592  5.08%  8300 51712s
   164    76     cutoff   16      -364.90080 -346.36592  5.08%  8800 54378s
   165    75     cutoff   15      -364.90080 -346.36592  5.08%  9367 57601s
   166    76 -362.36388   17  502 -364.90080 -346.36592  5.08%  9331 57663s
   167    75     cutoff   17      -364.90080 -346.36592  5.08%  9888 60953s
   168    76 -362.81157   18  461 -364.90080 -346.36592  5.08%  9850 61024s
   169    75     cutoff   18      -364.90080 -346.36592  5.08% 10228 63224s
   170    76 -363.25926   19  427 -364.90080 -346.36592  5.08% 10187 63266s
   171    75     cutoff   19      -364.90080 -346.36592  5.08% 10354 64316s
   172    76 -363.70696   20  404 -364.90080 -346.36592  5.08% 10305 64337s
   173    77 -364.60234   21  403 -364.90080 -346.36592  5.08% 10301 64526s
   175    79 -364.60234   23  450 -364.90080 -346.36592  5.08% 10185 64540s
   176    78     cutoff   23      -364.90080 -346.36592  5.08% 10132 64553s
   177    77     cutoff   22      -364.90080 -346.36592  5.08% 10075 64555s
   179    77     cutoff   25      -364.90080 -346.36592  5.08%  9966 64573s
   181    75     cutoff   24      -364.90080 -346.36592  5.08%  9926 64841s
   182    76 -360.86163    4  836 -364.90080 -346.41916  5.06% 10168 66037s
   183    77 -361.46008    5  387 -364.90080 -346.41916  5.06% 10132 66072s
   184    78 -361.56177    6  382 -364.90080 -346.41916  5.06% 10088 66095s
   185    79 -363.78157    6  265 -364.90080 -346.41916  5.06% 10171 66559s
   186    80 -364.22926    7  261 -364.90080 -346.41916  5.06% 10137 66614s
   187    79     cutoff    7      -364.90080 -346.41916  5.06% 10202 67062s
   188    80 -364.75157    8  248 -364.90080 -346.41916  5.06% 10185 67182s
   189    79     cutoff    8      -364.90080 -346.41916  5.06% 10242 67548s
   190    78     cutoff    7      -364.90080 -346.41916  5.06% 10356 68222s
   191    79 -361.76696    7  382 -364.90080 -346.41916  5.06% 10319 68257s
   192    80 -362.04250    8  385 -364.90080 -346.41916  5.06% 10300 68340s
   193    81 -363.55773    8  252 -364.90080 -346.41916  5.06% 10329 68631s
   194    82 -364.00542    9  225 -364.90080 -346.41916  5.06% 10286 68660s
   195    81     cutoff    9      -364.90080 -346.41916  5.06% 10323 68985s
   196    82 -364.45311   10  189 -364.90080 -346.41916  5.06% 10275 68994s
   197    81     cutoff   10      -364.90080 -346.41916  5.06% 10329 69383s
   198    80     cutoff   11      -364.90080 -346.41916  5.06% 10293 69423s
   199    79     cutoff   11      -364.90080 -346.41916  5.06% 10242 69425s
   200    80 -355.11853    5  986 -364.90080 -347.14958  4.86% 10517 70716s
   201    81 -355.94082    6  967 -364.90080 -347.14958  4.86% 10490 70772s
   202    82 -356.30860    7 1013 -364.90080 -347.14958  4.86% 10447 70791s
   203    81     cutoff    7      -364.90080 -347.14958  4.86% 10915 73042s
   204    82 -357.98932    6  958 -364.90080 -347.14958  4.86% 11069 73863s
   205    83 -359.33468    7  937 -364.90080 -347.14958  4.86% 11069 73976s
   206    84 -361.00782    8  903 -364.90080 -347.14958  4.86% 11103 74204s
   207    85 -362.65012    9  935 -364.90080 -347.14958  4.86% 11166 74570s
   208    84     cutoff   10      -364.90080 -347.14958  4.86% 11231 74899s
   209    85 -363.54322   10  920 -364.90080 -347.14958  4.86% 11207 74968s
   210    84     cutoff   11      -364.90080 -347.14958  4.86% 11272 75299s
   211    85 -364.44013   11  914 -364.90080 -347.14958  4.86% 11267 75436s
   212    84     cutoff   12      -364.90080 -347.14958  4.86% 11235 75469s
   213    83     cutoff   12      -364.90080 -347.14958  4.86% 11185 75473s
   214    84 -348.35376    3 2512 -364.90080 -347.86975  4.67% 11144 75482s
   215    85 -350.13650    4 2629 -364.90080 -347.86975  4.67% 11131 75559s
   216    86 -351.71068    5 2036 -364.90080 -347.86975  4.67% 11116 75623s
   217    87 -352.99649    6 1306 -364.90080 -347.86975  4.67% 11202 76007s
   218    88 -354.31159    7 2277 -364.90080 -347.86975  4.67% 11338 76776s
   219    89 -354.62815    8 2088 -364.90080 -347.86975  4.67% 11314 76853s
   220    90 -355.07875    9 1162 -364.90080 -347.86975  4.67% 11343 77112s
   221    91 -355.16383   10 1154 -364.90080 -347.86975  4.67% 11331 77229s
   222    92 -355.36167   11 1314 -364.90080 -347.86975  4.67% 11339 77398s
   223    93 -355.67565   12 1322 -364.90080 -347.86975  4.67% 11375 77699s
   224    94 -355.87010   13 1345 -364.90080 -347.86975  4.67% 11375 77851s
   225    95 -356.31962   14 1298 -364.90080 -347.86975  4.67% 11443 78226s
   226    96 -356.44630   15 1319 -364.90080 -347.86975  4.67% 11438 78333s
   227    97 -356.44676   16 1271 -364.90080 -347.86975  4.67% 11390 78343s
   228    98 -357.26340   17 1290 -364.90080 -347.86975  4.67% 11405 78519s
   229    99 -358.82248   18 1164 -364.90080 -347.86975  4.67% 11469 78915s
   230   100 -359.18450   19 1122 -364.90080 -347.86975  4.67% 11477 79075s
   231   101 -359.63459   20 1117 -364.90080 -347.86975  4.67% 11459 79174s
   232   102 -362.88395   21 1154 -364.90080 -347.86975  4.67% 11638 80008s
   233   103 -364.56683   22 1162 -364.90080 -347.86975  4.67% 11758 80599s
   234   102     cutoff   23      -364.90080 -347.86975  4.67% 11841 81043s
   235   101     cutoff   23      -364.90080 -347.86975  4.67% 11793 81048s
   236   100     cutoff   22      -364.90080 -347.86975  4.67% 12016 82314s
   237   101 -363.17192   21 1181 -364.90080 -347.86975  4.67% 12250 83526s
   238   100     cutoff   22      -364.90080 -347.86975  4.67% 12641 85746s
   239   101 -363.80809   22 1156 -364.90080 -347.86975  4.67% 12670 86008s

Cutting planes:
  Gomory: 2
  Zero half: 1105

Explored 240 nodes (3285992 simplex iterations) in 86400.65 seconds
Thread count was 1 (of 80 available processors)

Solution count 2: -364.901 -15716.1 

Time limit reached
Best objective -3.649008022245e+02, best bound -3.478697453170e+02, gap 4.6673%
